(set-logic QF_NRA)
(set-info :source |Benchmarks generated from hycomp (https://es-static.fbk.eu/tools/hycomp/). BMC instances of non-linear hybrid automata taken from: Alessandro Cimatti, Sergio Mover, Stefano Tonetta, A quantifier-free SMT encoding of non-linear hybrid automata, FMCAD 2012 and Alessandro Cimatti, Sergio Mover, Stefano Tonetta, Quantier-free encoding of invariants for Hybrid Systems, Formal Methods in System Design. This instance solves a BMC problem of depth 1 and uses the encoding obtained with quantifier elimination using qepcad encoding. Contacts: Sergio Mover (mover@fbk.eu), Stefano Tonetta (tonettas@fbk.eu), Alessandro Cimatti (cimatti@fbk.eu).|)
(set-info :smt-lib-version 2.0)
(set-info :category "industrial")
(set-info :status unsat)
;; MathSAT API call trace
;; generated on Mon Mar 19 10:49:21 2012
(declare-fun b.counter.1__AT0 () Bool)
(declare-fun b.counter.3__AT0 () Bool)
(declare-fun b.delta__AT1 () Real)
(declare-fun b.EVENT.0__AT1 () Bool)
(declare-fun b.EVENT.1__AT1 () Bool)
(declare-fun b.EVENT.0__AT0 () Bool)
(declare-fun b.speed_y__AT1 () Real)
(declare-fun b.event_is_timed__AT1 () Bool)
(declare-fun speed_loss__AT0 () Real)
(declare-fun b.counter.1__AT1 () Bool)
(declare-fun b.counter.2__AT1 () Bool)
(declare-fun b.counter.2__AT0 () Bool)
(declare-fun b.time__AT0 () Real)
(declare-fun b.speed_y__AT0 () Real)
(declare-fun b.EVENT.1__AT0 () Bool)
(declare-fun b.time__AT1 () Real)
(declare-fun b.y__AT1 () Real)
(declare-fun b.counter.0__AT1 () Bool)
(declare-fun b.delta__AT0 () Real)
(declare-fun b.counter.3__AT1 () Bool)
(declare-fun b.y__AT0 () Real)
(declare-fun b.event_is_timed__AT0 () Bool)
(declare-fun b.counter.0__AT0 () Bool)
(assert (let ((.def_252 (* 49.0 b.delta__AT1)))
(let ((.def_253 (* b.delta__AT1 .def_252)))
(let ((.def_254 (* (- 1.0) .def_253)))
(let ((.def_250 (* 10.0 b.delta__AT1)))
(let ((.def_251 (* b.speed_y__AT1 .def_250)))
(let ((.def_255 (+ .def_251 .def_254)))
(let ((.def_256 (* 10.0 b.y__AT1)))
(let ((.def_258 (+ .def_256 .def_255)))
(let ((.def_259 (<= 0.0 .def_258)))
(let ((.def_229 (<= 0.0 b.y__AT1)))
(let ((.def_260 (and .def_229 .def_259)))
(let ((.def_248 (<= 0.0 b.delta__AT1)))
(let ((.def_249 (not .def_248)))
(let ((.def_261 (or .def_249 .def_260)))
(let ((.def_226 (not b.EVENT.0__AT1)))
(let ((.def_224 (not b.EVENT.1__AT1)))
(let ((.def_245 (and .def_224 .def_226)))
(let ((.def_246 (not .def_245)))
(let ((.def_262 (or .def_246 .def_261)))
(let ((.def_38 (not b.counter.0__AT0)))
(let ((.def_238 (or b.counter.1__AT0 .def_38)))
(let ((.def_239 (or b.counter.2__AT0 .def_238)))
(let ((.def_41 (not b.counter.2__AT0)))
(let ((.def_36 (not b.counter.1__AT0)))
(let ((.def_39 (and .def_36 .def_38)))
(let ((.def_237 (or .def_39 .def_41)))
(let ((.def_240 (and .def_237 .def_239)))
(let ((.def_241 (or b.counter.3__AT0 .def_240)))
(let ((.def_234 (or .def_39 b.counter.2__AT0)))
(let ((.def_233 (or .def_36 .def_41)))
(let ((.def_235 (and .def_233 .def_234)))
(let ((.def_44 (not b.counter.3__AT0)))
(let ((.def_236 (or .def_44 .def_235)))
(let ((.def_242 (and .def_236 .def_241)))
(let ((.def_66 (<= speed_loss__AT0 (/ 1 2))))
(let ((.def_63 (<= (/ 1 10) speed_loss__AT0)))
(let ((.def_67 (and .def_63 .def_66)))
(let ((.def_230 (and .def_67 .def_229)))
(let ((.def_227 (or .def_224 .def_226)))
(let ((.def_9 (not b.counter.0__AT1)))
(let ((.def_6 (not b.counter.1__AT1)))
(let ((.def_217 (or .def_6 .def_9)))
(let ((.def_221 (or b.counter.3__AT1 .def_217)))
(let ((.def_218 (or b.counter.2__AT1 .def_217)))
(let ((.def_4 (not b.counter.2__AT1)))
(let ((.def_216 (or .def_4 .def_9)))
(let ((.def_219 (and .def_216 .def_218)))
(let ((.def_14 (not b.counter.3__AT1)))
(let ((.def_220 (or .def_14 .def_219)))
(let ((.def_222 (and .def_220 .def_221)))
(let ((.def_228 (and .def_222 .def_227)))
(let ((.def_231 (and .def_228 .def_230)))
(let ((.def_76 (<= 0.0 b.delta__AT0)))
(let ((.def_57 (not b.EVENT.0__AT0)))
(let ((.def_55 (not b.EVENT.1__AT0)))
(let ((.def_73 (and .def_55 .def_57)))
(let ((.def_74 (not .def_73)))
(let ((.def_212 (or .def_74 .def_76)))
(let ((.def_213 (or b.EVENT.1__AT0 .def_212)))
(let ((.def_142 (= b.counter.0__AT1 b.counter.0__AT0)))
(let ((.def_140 (= b.counter.1__AT1 b.counter.1__AT0)))
(let ((.def_138 (= b.counter.2__AT1 b.counter.2__AT0)))
(let ((.def_137 (= b.counter.3__AT1 b.counter.3__AT0)))
(let ((.def_139 (and .def_137 .def_138)))
(let ((.def_141 (and .def_139 .def_140)))
(let ((.def_143 (and .def_141 .def_142)))
(let ((.def_209 (or .def_74 .def_143)))
(let ((.def_210 (or b.EVENT.1__AT0 .def_209)))
(let ((.def_197 (* (- 5.0) b.speed_y__AT1)))
(let ((.def_198 (* (- 49.0) b.delta__AT0)))
(let ((.def_202 (+ .def_198 .def_197)))
(let ((.def_200 (* 5.0 b.speed_y__AT0)))
(let ((.def_203 (+ .def_200 .def_202)))
(let ((.def_204 (= .def_203 0.0 )))
(let ((.def_185 (* b.speed_y__AT0 b.delta__AT0)))
(let ((.def_186 (* 10.0 .def_185)))
(let ((.def_182 (* b.delta__AT0 b.delta__AT0)))
(let ((.def_184 (* (- 49.0) .def_182)))
(let ((.def_187 (+ .def_184 .def_186)))
(let ((.def_189 (* (- 10.0) b.y__AT1)))
(let ((.def_192 (+ .def_189 .def_187)))
(let ((.def_86 (* 10.0 b.y__AT0)))
(let ((.def_193 (+ .def_86 .def_192)))
(let ((.def_194 (= .def_193 0.0 )))
(let ((.def_205 (and .def_194 .def_204)))
(let ((.def_206 (or .def_74 .def_205)))
(let ((.def_148 (= b.y__AT0 b.y__AT1)))
(let ((.def_136 (= b.speed_y__AT0 b.speed_y__AT1)))
(let ((.def_179 (and .def_136 .def_148)))
(let ((.def_176 (= b.delta__AT0 0.0 )))
(let ((.def_177 (and .def_73 .def_176)))
(let ((.def_178 (not .def_177)))
(let ((.def_180 (or .def_178 .def_179)))
(let ((.def_181 (or b.EVENT.1__AT0 .def_180)))
(let ((.def_207 (and .def_181 .def_206)))
(let ((.def_158 (= b.time__AT0 b.time__AT1)))
(let ((.def_170 (and .def_148 .def_158)))
(let ((.def_171 (and .def_136 .def_170)))
(let ((.def_172 (and .def_143 .def_171)))
(let ((.def_173 (or .def_55 .def_172)))
(let ((.def_161 (* (- 1.0) b.time__AT1)))
(let ((.def_164 (+ b.delta__AT0 .def_161)))
(let ((.def_165 (+ b.time__AT0 .def_164)))
(let ((.def_166 (= .def_165 0.0 )))
(let ((.def_167 (or .def_74 .def_166)))
(let ((.def_168 (or b.EVENT.1__AT0 .def_167)))
(let ((.def_159 (or .def_73 .def_158)))
(let ((.def_160 (or b.EVENT.1__AT0 .def_159)))
(let ((.def_169 (and .def_160 .def_168)))
(let ((.def_174 (and .def_169 .def_173)))
(let ((.def_154 (= .def_74 b.event_is_timed__AT1)))
(let ((.def_152 (= b.event_is_timed__AT0 .def_73)))
(let ((.def_155 (and .def_152 .def_154)))
(let ((.def_144 (and .def_136 .def_143)))
(let ((.def_95 (<= 0.0 b.speed_y__AT0)))
(let ((.def_96 (not .def_95)))
(let ((.def_94 (= b.y__AT0 0.0 )))
(let ((.def_97 (and .def_94 .def_96)))
(let ((.def_145 (or .def_97 .def_144)))
(let ((.def_113 (or .def_9 b.counter.0__AT0)))
(let ((.def_112 (or b.counter.0__AT1 .def_38)))
(let ((.def_114 (and .def_112 .def_113)))
(let ((.def_115 (and .def_6 .def_114)))
(let ((.def_116 (or b.counter.1__AT0 .def_115)))
(let ((.def_111 (or b.counter.1__AT1 .def_36)))
(let ((.def_117 (and .def_111 .def_116)))
(let ((.def_128 (and .def_4 .def_117)))
(let ((.def_129 (or b.counter.2__AT0 .def_128)))
(let ((.def_123 (and .def_6 .def_38)))
(let ((.def_124 (or b.counter.1__AT0 .def_123)))
(let ((.def_125 (and .def_111 .def_124)))
(let ((.def_126 (and b.counter.2__AT1 .def_125)))
(let ((.def_127 (or .def_41 .def_126)))
(let ((.def_130 (and .def_127 .def_129)))
(let ((.def_131 (and b.counter.3__AT1 .def_130)))
(let ((.def_132 (or b.counter.3__AT0 .def_131)))
(let ((.def_118 (and b.counter.2__AT1 .def_117)))
(let ((.def_119 (or b.counter.2__AT0 .def_118)))
(let ((.def_107 (or b.counter.1__AT1 b.counter.1__AT0)))
(let ((.def_105 (and .def_6 b.counter.0__AT1)))
(let ((.def_106 (or .def_36 .def_105)))
(let ((.def_108 (and .def_106 .def_107)))
(let ((.def_109 (and .def_4 .def_108)))
(let ((.def_110 (or .def_41 .def_109)))
(let ((.def_120 (and .def_110 .def_119)))
(let ((.def_121 (and .def_14 .def_120)))
(let ((.def_122 (or .def_44 .def_121)))
(let ((.def_133 (and .def_122 .def_132)))
(let ((.def_100 (* (- 1.0) speed_loss__AT0)))
(let ((.def_101 (+ 1.0 .def_100)))
(let ((.def_99 (* (- 1.0) b.speed_y__AT0)))
(let ((.def_102 (* .def_99 .def_101)))
(let ((.def_104 (= .def_102 b.speed_y__AT1)))
(let ((.def_134 (and .def_104 .def_133)))
(let ((.def_98 (not .def_97)))
(let ((.def_135 (or .def_98 .def_134)))
(let ((.def_146 (and .def_135 .def_145)))
(let ((.def_149 (and .def_146 .def_148)))
(let ((.def_150 (or .def_73 .def_149)))
(let ((.def_151 (or b.EVENT.1__AT0 .def_150)))
(let ((.def_156 (and .def_151 .def_155)))
(let ((.def_175 (and .def_156 .def_174)))
(let ((.def_208 (and .def_175 .def_207)))
(let ((.def_211 (and .def_208 .def_210)))
(let ((.def_214 (and .def_211 .def_213)))
(let ((.def_215 (and .def_55 .def_214)))
(let ((.def_232 (and .def_215 .def_231)))
(let ((.def_243 (and .def_232 .def_242)))
(let ((.def_81 (* 49.0 b.delta__AT0)))
(let ((.def_82 (* b.delta__AT0 .def_81)))
(let ((.def_84 (* (- 1.0) .def_82)))
(let ((.def_78 (* 10.0 b.delta__AT0)))
(let ((.def_79 (* b.speed_y__AT0 .def_78)))
(let ((.def_85 (+ .def_79 .def_84)))
(let ((.def_88 (+ .def_86 .def_85)))
(let ((.def_89 (<= 0.0 .def_88)))
(let ((.def_68 (<= 0.0 b.y__AT0)))
(let ((.def_90 (and .def_68 .def_89)))
(let ((.def_77 (not .def_76)))
(let ((.def_91 (or .def_77 .def_90)))
(let ((.def_92 (or .def_74 .def_91)))
(let ((.def_69 (and .def_67 .def_68)))
(let ((.def_58 (or .def_55 .def_57)))
(let ((.def_48 (or .def_36 .def_38)))
(let ((.def_52 (or b.counter.3__AT0 .def_48)))
(let ((.def_49 (or b.counter.2__AT0 .def_48)))
(let ((.def_47 (or .def_38 .def_41)))
(let ((.def_50 (and .def_47 .def_49)))
(let ((.def_51 (or .def_44 .def_50)))
(let ((.def_53 (and .def_51 .def_52)))
(let ((.def_59 (and .def_53 .def_58)))
(let ((.def_70 (and .def_59 .def_69)))
(let ((.def_42 (and .def_39 .def_41)))
(let ((.def_45 (and .def_42 .def_44)))
(let ((.def_33 (= b.speed_y__AT0 0.0 )))
(let ((.def_30 (= b.y__AT0 10.0 )))
(let ((.def_25 (= b.time__AT0 0.0 )))
(let ((.def_27 (and .def_25 b.event_is_timed__AT0)))
(let ((.def_31 (and .def_27 .def_30)))
(let ((.def_34 (and .def_31 .def_33)))
(let ((.def_46 (and .def_34 .def_45)))
(let ((.def_71 (and .def_46 .def_70)))
(let ((.def_17 (or b.counter.1__AT1 .def_9)))
(let ((.def_18 (or b.counter.2__AT1 .def_17)))
(let ((.def_10 (and .def_6 .def_9)))
(let ((.def_16 (or .def_4 .def_10)))
(let ((.def_19 (and .def_16 .def_18)))
(let ((.def_20 (or b.counter.3__AT1 .def_19)))
(let ((.def_11 (or b.counter.2__AT1 .def_10)))
(let ((.def_7 (or .def_4 .def_6)))
(let ((.def_12 (and .def_7 .def_11)))
(let ((.def_15 (or .def_12 .def_14)))
(let ((.def_21 (and .def_15 .def_20)))
(let ((.def_22 (not .def_21)))
(let ((.def_72 (and .def_22 .def_71)))
(let ((.def_93 (and .def_72 .def_92)))
(let ((.def_244 (and .def_93 .def_243)))
(let ((.def_263 (and .def_244 .def_262)))
.def_263)))))))))))))))))))))))))))))))))))))))))))))))))))))))))))))))))))))))))))))))))))))))))))))))))))))))))))))))))))))))))))))))))))))))))))))))))))))))))))))))))))))))))))))))))))))))))))))))))))))))))))))))))))))))))))
(check-sat)
(exit)
